; benchmark generated from python API
(set-info :status unknown)
(declare-fun strlen_85_64 () (_ BitVec 64))
(declare-fun args_1_8 () (_ BitVec 8))
(declare-fun strlen_83_64 () (_ BitVec 64))
(declare-fun strncmp_ret_84_32 () (_ BitVec 32))
(declare-fun strncmp_ret_86_32 () (_ BitVec 32))
(declare-fun filesize_file_0_/proc/self/loginuid_88_64 () (_ BitVec 64))
(declare-fun syscall_stub_ioctl_95_32 () (_ BitVec 32))
(declare-fun syscall_stub_newfstatat_125_64 () (_ BitVec 64))
(declare-fun syscall_stub_readlink_161_64 () (_ BitVec 64))
(declare-fun strlen_1003_64 () (_ BitVec 64))
(declare-fun mem_7fffffffffef420_175_64 () (_ BitVec 64))
(declare-fun syscall_stub_newfstatat_224_64 () (_ BitVec 64))
(declare-fun mem_7fffffffffef038_301_64 () (_ BitVec 64))
(declare-fun mem_7fffffffffeefa8_302_64 () (_ BitVec 64))
(declare-fun mem_7fffffffffeefa0_350_64 () (_ BitVec 64))
(declare-fun mem_7fffffffffef030_351_64 () (_ BitVec 64))
(declare-fun mem_7fffffffffef048_402_32 () (_ BitVec 32))
(declare-fun mem_7fffffffffeefc8_439_64 () (_ BitVec 64))
(declare-fun mem_7fffffffffef058_440_64 () (_ BitVec 64))
(declare-fun access_2311_32 () (_ BitVec 32))
(declare-fun access_3100_32 () (_ BitVec 32))
(declare-fun mem_2c_5349_264 () (_ BitVec 264))
(declare-fun strlen_5350_64 () (_ BitVec 64))
(declare-fun strlen_8294_64 () (_ BitVec 64))
(declare-fun strlen_10104_64 () (_ BitVec 64))
(declare-fun mem_7fffffffffef740_6458_248 () (_ BitVec 248))
(assert
 (let ((?x751 (bvadd (_ bv576460752303357826 64) strlen_85_64)))
 (let (($x69 (= (_ bv0 8) args_1_8)))
 (let ((?x46 (ite $x69 (_ bv576460752303357826 64) (_ bv576460752303357827 64))))
 (= ?x46 ?x751)))))
(assert
 (let ((?x101 (bvadd (_ bv576460752303357826 64) strlen_83_64)))
 (let (($x69 (= (_ bv0 8) args_1_8)))
 (let ((?x46 (ite $x69 (_ bv576460752303357826 64) (_ bv576460752303357827 64))))
 (= ?x46 ?x101)))))
(assert
 (let (($x104 (bvule (_ bv2 64) strlen_83_64)))
 (let (($x48 (= (_ bv2 64) strlen_83_64)))
 (let (($x122 (or $x48 $x104)))
 (let (($x123 (not $x122)))
 (let (($x57 (= (_ bv45 8) args_1_8)))
 (let (($x121 (not $x57)))
 (or $x121 $x123))))))))
(assert
 (= (_ bv1 32) strncmp_ret_84_32))
(assert
 (= (_ bv1 32) strncmp_ret_86_32))
(assert
 true)
(assert
 (let (($x1210 (bvsge (_ bv0 64) filesize_file_0_/proc/self/loginuid_88_64)))
 (let ((?x1217 (ite $x1210 (_ bv0 64) filesize_file_0_/proc/self/loginuid_88_64)))
 (let ((?x1236 ((_ extract 3 0) filesize_file_0_/proc/self/loginuid_88_64)))
 (let ((?x99 (ite $x1210 (_ bv0 4) ?x1236)))
 (let (($x1110 (bvule ?x99 (_ bv12 4))))
 (let ((?x1229 ((_ extract 63 4) filesize_file_0_/proc/self/loginuid_88_64)))
 (let (($x523 (= (_ bv0 60) ?x1229)))
 (let (($x516 (or $x1210 $x523)))
 (let (($x975 (and $x516 $x1110)))
 (let ((?x1169 (ite $x975 ?x1217 (_ bv12 64))))
 (= (_ bv12 64) ?x1169))))))))))))
(assert
 (let ((?x47778 ((_ extract 31 31) syscall_stub_ioctl_95_32)))
 (= (_ bv0 1) ?x47778)))
(assert
 (let (($x2449 (= (_ bv0 32) syscall_stub_ioctl_95_32)))
 (not $x2449)))
(assert
 (let ((?x68076 ((_ extract 31 0) syscall_stub_newfstatat_125_64)))
 (bvule ?x68076 (_ bv4294963200 32))))
(assert
 (= (_ bv13 64) syscall_stub_readlink_161_64))
(assert
 (let ((?x447355 (bvadd (_ bv576460752303354917 64) strlen_1003_64)))
 (let ((?x117542 ((_ extract 63 56) mem_7fffffffffef420_175_64)))
 (let (($x447349 (= (_ bv0 8) ?x117542)))
 (let ((?x115492 (ite $x447349 (_ bv576460752303354919 64) (_ bv576460752303354920 64))))
 (let ((?x117627 ((_ extract 55 48) mem_7fffffffffef420_175_64)))
 (let (($x446785 (= (_ bv0 8) ?x117627)))
 (let ((?x115455 (ite $x446785 (_ bv576460752303354918 64) ?x115492)))
 (let ((?x117606 ((_ extract 47 40) mem_7fffffffffef420_175_64)))
 (let (($x447312 (= (_ bv0 8) ?x117606)))
 (let ((?x115314 (ite $x447312 (_ bv576460752303354917 64) ?x115455)))
 (= ?x115314 ?x447355))))))))))))
(assert
 (let ((?x114646 ((_ extract 7 0) mem_7fffffffffef420_175_64)))
 (= (_ bv47 8) ?x114646)))
(assert
 (let ((?x449421 (bvadd (_ bv1 64) strlen_1003_64)))
 (let ((?x449847 ((_ extract 63 3) ?x449421)))
 (= (_ bv0 61) ?x449847))))
(assert
 (let ((?x449531 ((_ extract 2 0) strlen_1003_64)))
 (let ((?x449955 (bvadd (_ bv1 3) ?x449531)))
 (bvule ?x449955 (_ bv4 3)))))
(assert
 (let ((?x449421 (bvadd (_ bv1 64) strlen_1003_64)))
 (let (($x449083 (bvule (_ bv31 64) strlen_1003_64)))
 (let (($x449398 (bvule strlen_1003_64 (_ bv18446744073709551614 64))))
 (let (($x449830 (and $x449398 $x449083)))
 (let ((?x449914 (ite $x449830 (_ bv32 64) ?x449421)))
 (bvule (_ bv1 64) ?x449914)))))))
(assert
 (let (($x449083 (bvule (_ bv31 64) strlen_1003_64)))
 (let (($x449560 (not $x449083)))
 (let (($x449398 (bvule strlen_1003_64 (_ bv18446744073709551614 64))))
 (let (($x449556 (not $x449398)))
 (or $x449556 $x449560))))))
(assert
 (let ((?x120032 ((_ extract 31 0) syscall_stub_newfstatat_224_64)))
 (bvule ?x120032 (_ bv4294963200 32))))
(assert
 (= mem_7fffffffffeefa8_302_64 mem_7fffffffffef038_301_64))
(assert
 (= mem_7fffffffffef030_351_64 mem_7fffffffffeefa0_350_64))
(assert
 (let ((?x274831 ((_ extract 15 12) mem_7fffffffffef048_402_32)))
 (= (_ bv2 4) ?x274831)))
(assert
 (= mem_7fffffffffef058_440_64 mem_7fffffffffeefc8_439_64))
(assert
 (= (_ bv0 32) access_2311_32))
(assert
 (= (_ bv4294967295 32) access_3100_32))
(assert
 (let ((?x1290244 ((_ extract 15 8) mem_2c_5349_264)))
 (= (_ bv0 8) ?x1290244)))
(assert
 (= (_ bv31 64) strlen_5350_64))
(assert
 (let ((?x1290242 ((_ extract 23 16) mem_2c_5349_264)))
 (let (($x1290241 (= (_ bv0 8) ?x1290242)))
 (not $x1290241))))
(assert
 (let ((?x1290240 ((_ extract 31 24) mem_2c_5349_264)))
 (let (($x1290239 (= (_ bv0 8) ?x1290240)))
 (not $x1290239))))
(assert
 (let ((?x1290238 ((_ extract 39 32) mem_2c_5349_264)))
 (let (($x1290236 (= (_ bv0 8) ?x1290238)))
 (not $x1290236))))
(assert
 (let ((?x1290235 ((_ extract 47 40) mem_2c_5349_264)))
 (let (($x1290234 (= (_ bv0 8) ?x1290235)))
 (not $x1290234))))
(assert
 (let ((?x1290233 ((_ extract 55 48) mem_2c_5349_264)))
 (let (($x1290232 (= (_ bv0 8) ?x1290233)))
 (not $x1290232))))
(assert
 (let ((?x1290231 ((_ extract 63 56) mem_2c_5349_264)))
 (let (($x1290230 (= (_ bv0 8) ?x1290231)))
 (not $x1290230))))
(assert
 (let ((?x1290229 ((_ extract 71 64) mem_2c_5349_264)))
 (let (($x1290225 (= (_ bv0 8) ?x1290229)))
 (not $x1290225))))
(assert
 (let ((?x1290224 ((_ extract 79 72) mem_2c_5349_264)))
 (let (($x1290223 (= (_ bv0 8) ?x1290224)))
 (not $x1290223))))
(assert
 (let ((?x1290222 ((_ extract 87 80) mem_2c_5349_264)))
 (let (($x1290221 (= (_ bv0 8) ?x1290222)))
 (not $x1290221))))
(assert
 (let ((?x1290220 ((_ extract 95 88) mem_2c_5349_264)))
 (let (($x1290219 (= (_ bv0 8) ?x1290220)))
 (not $x1290219))))
(assert
 (let ((?x1290218 ((_ extract 103 96) mem_2c_5349_264)))
 (let (($x1290217 (= (_ bv0 8) ?x1290218)))
 (not $x1290217))))
(assert
 (let ((?x1290216 ((_ extract 111 104) mem_2c_5349_264)))
 (let (($x1290215 (= (_ bv0 8) ?x1290216)))
 (not $x1290215))))
(assert
 (let ((?x1290214 ((_ extract 119 112) mem_2c_5349_264)))
 (let (($x1290213 (= (_ bv0 8) ?x1290214)))
 (not $x1290213))))
(assert
 (let ((?x1290212 ((_ extract 127 120) mem_2c_5349_264)))
 (let (($x1290211 (= (_ bv0 8) ?x1290212)))
 (not $x1290211))))
(assert
 (let ((?x1290210 ((_ extract 135 128) mem_2c_5349_264)))
 (let (($x1290209 (= (_ bv0 8) ?x1290210)))
 (not $x1290209))))
(assert
 (let ((?x1290208 ((_ extract 143 136) mem_2c_5349_264)))
 (let (($x1290207 (= (_ bv0 8) ?x1290208)))
 (not $x1290207))))
(assert
 (let ((?x1290206 ((_ extract 151 144) mem_2c_5349_264)))
 (let (($x1290205 (= (_ bv0 8) ?x1290206)))
 (not $x1290205))))
(assert
 (let ((?x1290204 ((_ extract 159 152) mem_2c_5349_264)))
 (let (($x1290203 (= (_ bv0 8) ?x1290204)))
 (not $x1290203))))
(assert
 (let ((?x1290202 ((_ extract 167 160) mem_2c_5349_264)))
 (let (($x1290201 (= (_ bv0 8) ?x1290202)))
 (not $x1290201))))
(assert
 (let ((?x1290200 ((_ extract 175 168) mem_2c_5349_264)))
 (let (($x1290199 (= (_ bv0 8) ?x1290200)))
 (not $x1290199))))
(assert
 (let ((?x1290198 ((_ extract 183 176) mem_2c_5349_264)))
 (let (($x1290197 (= (_ bv0 8) ?x1290198)))
 (not $x1290197))))
(assert
 (let ((?x1290196 ((_ extract 191 184) mem_2c_5349_264)))
 (let (($x1290195 (= (_ bv0 8) ?x1290196)))
 (not $x1290195))))
(assert
 (let ((?x1290194 ((_ extract 199 192) mem_2c_5349_264)))
 (let (($x1290193 (= (_ bv0 8) ?x1290194)))
 (not $x1290193))))
(assert
 (let ((?x1290192 ((_ extract 207 200) mem_2c_5349_264)))
 (let (($x1290191 (= (_ bv0 8) ?x1290192)))
 (not $x1290191))))
(assert
 (let ((?x1290190 ((_ extract 215 208) mem_2c_5349_264)))
 (let (($x1290189 (= (_ bv0 8) ?x1290190)))
 (not $x1290189))))
(assert
 (let ((?x1290188 ((_ extract 223 216) mem_2c_5349_264)))
 (let (($x1290187 (= (_ bv0 8) ?x1290188)))
 (not $x1290187))))
(assert
 (let ((?x1290186 ((_ extract 231 224) mem_2c_5349_264)))
 (let (($x1290185 (= (_ bv0 8) ?x1290186)))
 (not $x1290185))))
(assert
 (let ((?x1290184 ((_ extract 239 232) mem_2c_5349_264)))
 (let (($x1290183 (= (_ bv0 8) ?x1290184)))
 (not $x1290183))))
(assert
 (let ((?x1290182 ((_ extract 247 240) mem_2c_5349_264)))
 (let (($x1290181 (= (_ bv0 8) ?x1290182)))
 (not $x1290181))))
(assert
 (let ((?x1290180 ((_ extract 255 248) mem_2c_5349_264)))
 (let (($x1290179 (= (_ bv0 8) ?x1290180)))
 (not $x1290179))))
(assert
 (let ((?x1290177 ((_ extract 263 256) mem_2c_5349_264)))
 (let (($x1290178 (= (_ bv0 8) ?x1290177)))
 (not $x1290178))))
(assert
 (= (_ bv31 64) strlen_8294_64))
(assert
 (let ((?x1352328 ((_ extract 7 0) mem_7fffffffffef740_6458_248)))
 (let ((?x1356186 ((_ extract 15 0) mem_7fffffffffef740_6458_248)))
 (let ((?x1356913 ((_ extract 23 0) mem_7fffffffffef740_6458_248)))
 (let ((?x1356911 ((_ extract 31 0) mem_7fffffffffef740_6458_248)))
 (let ((?x1352491 ((_ extract 39 0) mem_7fffffffffef740_6458_248)))
 (let ((?x1358035 ((_ extract 47 0) mem_7fffffffffef740_6458_248)))
 (let ((?x480295 ((_ extract 55 0) mem_7fffffffffef740_6458_248)))
 (let ((?x1341715 ((_ extract 63 0) mem_7fffffffffef740_6458_248)))
 (let ((?x1355622 ((_ extract 71 0) mem_7fffffffffef740_6458_248)))
 (let ((?x1356252 ((_ extract 79 0) mem_7fffffffffef740_6458_248)))
 (let ((?x1356925 ((_ extract 87 0) mem_7fffffffffef740_6458_248)))
 (let ((?x1351673 ((_ extract 95 0) mem_7fffffffffef740_6458_248)))
 (let ((?x1352249 ((_ extract 103 0) mem_7fffffffffef740_6458_248)))
 (let ((?x1358278 ((_ extract 111 0) mem_7fffffffffef740_6458_248)))
 (let ((?x1309381 ((_ extract 119 0) mem_7fffffffffef740_6458_248)))
 (let ((?x1356619 ((_ extract 127 0) mem_7fffffffffef740_6458_248)))
 (let ((?x1356547 ((_ extract 135 0) mem_7fffffffffef740_6458_248)))
 (let ((?x1356891 ((_ extract 143 0) mem_7fffffffffef740_6458_248)))
 (let ((?x1354640 ((_ extract 151 0) mem_7fffffffffef740_6458_248)))
 (let ((?x1355691 ((_ extract 159 0) mem_7fffffffffef740_6458_248)))
 (let ((?x1356938 ((_ extract 167 0) mem_7fffffffffef740_6458_248)))
 (let ((?x1357559 ((_ extract 175 0) mem_7fffffffffef740_6458_248)))
 (let ((?x1356857 ((_ extract 183 0) mem_7fffffffffef740_6458_248)))
 (let ((?x1356153 ((_ extract 191 0) mem_7fffffffffef740_6458_248)))
 (let ((?x1353997 ((_ extract 199 0) mem_7fffffffffef740_6458_248)))
 (let ((?x1354882 ((_ extract 207 0) mem_7fffffffffef740_6458_248)))
 (let ((?x1356401 ((_ extract 215 0) mem_7fffffffffef740_6458_248)))
 (let ((?x1352883 ((_ extract 223 0) mem_7fffffffffef740_6458_248)))
 (let ((?x558554 ((_ extract 231 0) mem_7fffffffffef740_6458_248)))
 (let ((?x1354374 ((_ extract 239 0) mem_7fffffffffef740_6458_248)))
 (let ((?x1343708 ((_ extract 263 16) mem_2c_5349_264)))
 (let (($x1343547 (= (_ bv1 64) strlen_5350_64)))
 (let ((?x1356407 (ite $x1343547 ?x1343708 mem_7fffffffffef740_6458_248)))
 (let ((?x1355483 ((_ extract 247 240) ?x1356407)))
 (let ((?x1354818 (concat ?x1355483 ?x1354374)))
 (let (($x1343793 (= (_ bv2 64) strlen_5350_64)))
 (let ((?x1353742 (ite $x1343793 ?x1343708 ?x1354818)))
 (let ((?x1309471 ((_ extract 247 232) ?x1353742)))
 (let ((?x1354855 (concat ?x1309471 ?x558554)))
 (let (($x1343594 (= (_ bv3 64) strlen_5350_64)))
 (let ((?x1354067 (ite $x1343594 ?x1343708 ?x1354855)))
 (let ((?x1356422 ((_ extract 247 224) ?x1354067)))
 (let ((?x1356400 (concat ?x1356422 ?x1352883)))
 (let (($x1343715 (= (_ bv4 64) strlen_5350_64)))
 (let ((?x1355987 (ite $x1343715 ?x1343708 ?x1356400)))
 (let ((?x1354821 ((_ extract 247 216) ?x1355987)))
 (let ((?x1353927 (concat ?x1354821 ?x1356401)))
 (let (($x1297566 (= (_ bv5 64) strlen_5350_64)))
 (let ((?x475349 (ite $x1297566 ?x1343708 ?x1353927)))
 (let ((?x1355365 ((_ extract 247 208) ?x475349)))
 (let ((?x1357634 (concat ?x1355365 ?x1354882)))
 (let (($x1343637 (= (_ bv6 64) strlen_5350_64)))
 (let ((?x1356979 (ite $x1343637 ?x1343708 ?x1357634)))
 (let ((?x1309244 ((_ extract 247 200) ?x1356979)))
 (let ((?x1355693 (concat ?x1309244 ?x1353997)))
 (let (($x1343730 (= (_ bv7 64) strlen_5350_64)))
 (let ((?x1295151 (ite $x1343730 ?x1343708 ?x1355693)))
 (let ((?x1343583 ((_ extract 247 192) ?x1295151)))
 (let ((?x1356847 (concat ?x1343583 ?x1356153)))
 (let (($x1343970 (= (_ bv8 64) strlen_5350_64)))
 (let ((?x1355627 (ite $x1343970 ?x1343708 ?x1356847)))
 (let ((?x1356607 ((_ extract 247 184) ?x1355627)))
 (let ((?x1357710 (concat ?x1356607 ?x1356857)))
 (let (($x1297604 (= (_ bv9 64) strlen_5350_64)))
 (let ((?x1356889 (ite $x1297604 ?x1343708 ?x1357710)))
 (let ((?x1293621 ((_ extract 247 176) ?x1356889)))
 (let ((?x1357806 (concat ?x1293621 ?x1357559)))
 (let (($x1343815 (= (_ bv10 64) strlen_5350_64)))
 (let ((?x1353876 (ite $x1343815 ?x1343708 ?x1357806)))
 (let ((?x505573 ((_ extract 247 168) ?x1353876)))
 (let ((?x1356156 (concat ?x505573 ?x1356938)))
 (let (($x1343360 (= (_ bv11 64) strlen_5350_64)))
 (let ((?x1357130 (ite $x1343360 ?x1343708 ?x1356156)))
 (let ((?x1354810 ((_ extract 247 160) ?x1357130)))
 (let ((?x1341198 (concat ?x1354810 ?x1355691)))
 (let (($x1343878 (= (_ bv12 64) strlen_5350_64)))
 (let ((?x1356897 (ite $x1343878 ?x1343708 ?x1341198)))
 (let ((?x1355137 ((_ extract 247 152) ?x1356897)))
 (let ((?x1356739 (concat ?x1355137 ?x1354640)))
 (let (($x1343629 (= (_ bv13 64) strlen_5350_64)))
 (let ((?x1357111 (ite $x1343629 ?x1343708 ?x1356739)))
 (let ((?x1356068 ((_ extract 247 144) ?x1357111)))
 (let ((?x1357866 (concat ?x1356068 ?x1356891)))
 (let (($x1343563 (= (_ bv14 64) strlen_5350_64)))
 (let ((?x497360 (ite $x1343563 ?x1343708 ?x1357866)))
 (let ((?x1337132 ((_ extract 247 136) ?x497360)))
 (let ((?x1356553 (concat ?x1337132 ?x1356547)))
 (let (($x1297521 (= (_ bv15 64) strlen_5350_64)))
 (let ((?x1354819 (ite $x1297521 ?x1343708 ?x1356553)))
 (let ((?x1357363 ((_ extract 247 128) ?x1354819)))
 (let ((?x1358306 (concat ?x1357363 ?x1356619)))
 (let (($x1343863 (= (_ bv16 64) strlen_5350_64)))
 (let ((?x1355654 (ite $x1343863 ?x1343708 ?x1358306)))
 (let ((?x1341562 ((_ extract 247 120) ?x1355654)))
 (let ((?x1356595 (concat ?x1341562 ?x1309381)))
 (let (($x1343767 (= (_ bv17 64) strlen_5350_64)))
 (let ((?x1355430 (ite $x1343767 ?x1343708 ?x1356595)))
 (let ((?x1356416 ((_ extract 247 112) ?x1355430)))
 (let ((?x1352509 (concat ?x1356416 ?x1358278)))
 (let (($x1343558 (= (_ bv18 64) strlen_5350_64)))
 (let ((?x1351823 (ite $x1343558 ?x1343708 ?x1352509)))
 (let ((?x1352365 ((_ extract 247 104) ?x1351823)))
 (let ((?x1351608 (concat ?x1352365 ?x1352249)))
 (let (($x1343703 (= (_ bv19 64) strlen_5350_64)))
 (let ((?x1351714 (ite $x1343703 ?x1343708 ?x1351608)))
 (let ((?x1355293 ((_ extract 247 96) ?x1351714)))
 (let ((?x1351606 (concat ?x1355293 ?x1351673)))
 (let (($x1343774 (= (_ bv20 64) strlen_5350_64)))
 (let ((?x1356262 (ite $x1343774 ?x1343708 ?x1351606)))
 (let ((?x1358277 ((_ extract 247 88) ?x1356262)))
 (let ((?x1357388 (concat ?x1358277 ?x1356925)))
 (let (($x1343525 (= (_ bv21 64) strlen_5350_64)))
 (let ((?x1357839 (ite $x1343525 ?x1343708 ?x1357388)))
 (let ((?x1354277 ((_ extract 247 80) ?x1357839)))
 (let ((?x1356227 (concat ?x1354277 ?x1356252)))
 (let (($x1343378 (= (_ bv22 64) strlen_5350_64)))
 (let ((?x490284 (ite $x1343378 ?x1343708 ?x1356227)))
 (let ((?x1357070 ((_ extract 247 72) ?x490284)))
 (let ((?x1357083 (concat ?x1357070 ?x1355622)))
 (let (($x1343591 (= (_ bv23 64) strlen_5350_64)))
 (let ((?x1341318 (ite $x1343591 ?x1343708 ?x1357083)))
 (let ((?x1337258 ((_ extract 247 64) ?x1341318)))
 (let ((?x1353882 (concat ?x1337258 ?x1341715)))
 (let (($x1343634 (= (_ bv24 64) strlen_5350_64)))
 (let ((?x1354434 (ite $x1343634 ?x1343708 ?x1353882)))
 (let ((?x481967 ((_ extract 247 56) ?x1354434)))
 (let ((?x1356242 (concat ?x481967 ?x480295)))
 (let (($x1343575 (= (_ bv25 64) strlen_5350_64)))
 (let ((?x1341326 (ite $x1343575 ?x1343708 ?x1356242)))
 (let ((?x1353110 ((_ extract 247 48) ?x1341326)))
 (let ((?x1356944 (concat ?x1353110 ?x1358035)))
 (let (($x1343768 (= (_ bv26 64) strlen_5350_64)))
 (let ((?x1353428 (ite $x1343768 ?x1343708 ?x1356944)))
 (let ((?x1356223 ((_ extract 247 40) ?x1353428)))
 (let ((?x1352488 (concat ?x1356223 ?x1352491)))
 (let (($x1343589 (= (_ bv27 64) strlen_5350_64)))
 (let ((?x1356791 (ite $x1343589 ?x1343708 ?x1352488)))
 (let ((?x1356625 ((_ extract 247 32) ?x1356791)))
 (let ((?x1356907 (concat ?x1356625 ?x1356911)))
 (let (($x1343710 (= (_ bv28 64) strlen_5350_64)))
 (let ((?x1356981 (ite $x1343710 ?x1343708 ?x1356907)))
 (let ((?x1355079 ((_ extract 247 24) ?x1356981)))
 (let ((?x1356890 (concat ?x1355079 ?x1356913)))
 (let (($x1343711 (= (_ bv29 64) strlen_5350_64)))
 (let ((?x1357486 (ite $x1343711 ?x1343708 ?x1356890)))
 (let ((?x1353407 ((_ extract 247 16) ?x1357486)))
 (let ((?x1352784 (concat ?x1353407 ?x1356186)))
 (let (($x1343903 (= (_ bv30 64) strlen_5350_64)))
 (let ((?x1357084 (ite $x1343903 ?x1343708 ?x1352784)))
 (let ((?x1356270 ((_ extract 247 8) ?x1357084)))
 (let ((?x1354396 (concat ?x1356270 ?x1352328)))
 (let (($x1343772 (= (_ bv31 64) strlen_5350_64)))
 (let ((?x1356873 (ite $x1343772 ?x1343708 ?x1354396)))
 (let ((?x1657199 ((_ extract 7 0) ?x1356873)))
 (let (($x1657413 (= (_ bv0 8) ?x1657199)))
 (let ((?x1657084 (ite $x1657413 (_ bv576460752303355742 64) (_ bv576460752303355743 64))))
 (let ((?x1657085 ((_ extract 15 8) ?x1356873)))
 (let (($x1657401 (= (_ bv0 8) ?x1657085)))
 (let ((?x1657169 (ite $x1657401 (_ bv576460752303355741 64) ?x1657084)))
 (let ((?x1657062 ((_ extract 23 16) ?x1356873)))
 (let (($x1657370 (= (_ bv0 8) ?x1657062)))
 (let ((?x1657069 (ite $x1657370 (_ bv576460752303355740 64) ?x1657169)))
 (let ((?x1654523 ((_ extract 31 24) ?x1356873)))
 (let (($x1657147 (= (_ bv0 8) ?x1654523)))
 (let ((?x1337252 (ite $x1657147 (_ bv576460752303355739 64) ?x1657069)))
 (let ((?x1657029 ((_ extract 39 32) ?x1356873)))
 (let (($x1657022 (= (_ bv0 8) ?x1657029)))
 (let ((?x1657249 (ite $x1657022 (_ bv576460752303355738 64) ?x1337252)))
 (let ((?x1657272 ((_ extract 47 40) ?x1356873)))
 (let (($x1654405 (= (_ bv0 8) ?x1657272)))
 (let ((?x1657379 (ite $x1654405 (_ bv576460752303355737 64) ?x1657249)))
 (let ((?x1640095 ((_ extract 55 48) ?x1356873)))
 (let (($x1657228 (= (_ bv0 8) ?x1640095)))
 (let ((?x1655740 (ite $x1657228 (_ bv576460752303355736 64) ?x1657379)))
 (let ((?x1657271 ((_ extract 63 56) ?x1356873)))
 (let (($x1655573 (= (_ bv0 8) ?x1657271)))
 (let ((?x1657398 (ite $x1655573 (_ bv576460752303355735 64) ?x1655740)))
 (let ((?x1657202 ((_ extract 71 64) ?x1356873)))
 (let (($x1642082 (= (_ bv0 8) ?x1657202)))
 (let ((?x1657317 (ite $x1642082 (_ bv576460752303355734 64) ?x1657398)))
 (let ((?x1657433 ((_ extract 79 72) ?x1356873)))
 (let (($x1657010 (= (_ bv0 8) ?x1657433)))
 (let ((?x1657312 (ite $x1657010 (_ bv576460752303355733 64) ?x1657317)))
 (let ((?x1657203 ((_ extract 87 80) ?x1356873)))
 (let (($x1657004 (= (_ bv0 8) ?x1657203)))
 (let ((?x481699 (ite $x1657004 (_ bv576460752303355732 64) ?x1657312)))
 (let ((?x1657293 ((_ extract 95 88) ?x1356873)))
 (let (($x1643057 (= (_ bv0 8) ?x1657293)))
 (let ((?x1358048 (ite $x1643057 (_ bv576460752303355731 64) ?x481699)))
 (let ((?x1657091 ((_ extract 103 96) ?x1356873)))
 (let (($x1357018 (= (_ bv0 8) ?x1657091)))
 (let ((?x1353225 (ite $x1357018 (_ bv576460752303355730 64) ?x1358048)))
 (let ((?x1657266 ((_ extract 111 104) ?x1356873)))
 (let (($x1357222 (= (_ bv0 8) ?x1657266)))
 (let ((?x1356419 (ite $x1357222 (_ bv576460752303355729 64) ?x1353225)))
 (let ((?x1657108 ((_ extract 119 112) ?x1356873)))
 (let (($x1353508 (= (_ bv0 8) ?x1657108)))
 (let ((?x1357360 (ite $x1353508 (_ bv576460752303355728 64) ?x1356419)))
 (let ((?x1657124 ((_ extract 127 120) ?x1356873)))
 (let (($x1357539 (= (_ bv0 8) ?x1657124)))
 (let ((?x1646113 (ite $x1357539 (_ bv576460752303355727 64) ?x1357360)))
 (let ((?x1642795 ((_ extract 135 128) ?x1356873)))
 (let (($x1355256 (= (_ bv0 8) ?x1642795)))
 (let ((?x1657092 (ite $x1355256 (_ bv576460752303355726 64) ?x1646113)))
 (let ((?x1657275 ((_ extract 143 136) ?x1356873)))
 (let (($x1357572 (= (_ bv0 8) ?x1657275)))
 (let ((?x1657013 (ite $x1357572 (_ bv576460752303355725 64) ?x1657092)))
 (let ((?x1657420 ((_ extract 151 144) ?x1356873)))
 (let (($x1356851 (= (_ bv0 8) ?x1657420)))
 (let ((?x1657086 (ite $x1356851 (_ bv576460752303355724 64) ?x1657013)))
 (let ((?x1657224 ((_ extract 159 152) ?x1356873)))
 (let (($x1356842 (= (_ bv0 8) ?x1657224)))
 (let ((?x1657247 (ite $x1356842 (_ bv576460752303355723 64) ?x1657086)))
 (let ((?x1657210 ((_ extract 167 160) ?x1356873)))
 (let (($x1356431 (= (_ bv0 8) ?x1657210)))
 (let ((?x1657000 (ite $x1356431 (_ bv576460752303355722 64) ?x1657247)))
 (let ((?x1657229 ((_ extract 175 168) ?x1356873)))
 (let (($x1353213 (= (_ bv0 8) ?x1657229)))
 (let ((?x1657178 (ite $x1353213 (_ bv576460752303355721 64) ?x1657000)))
 (let ((?x1657434 ((_ extract 183 176) ?x1356873)))
 (let (($x1354180 (= (_ bv0 8) ?x1657434)))
 (let ((?x1657198 (ite $x1354180 (_ bv576460752303355720 64) ?x1657178)))
 (let ((?x1657115 ((_ extract 191 184) ?x1356873)))
 (let (($x1355273 (= (_ bv0 8) ?x1657115)))
 (let ((?x1657274 (ite $x1355273 (_ bv576460752303355719 64) ?x1657198)))
 (let ((?x1639670 ((_ extract 199 192) ?x1356873)))
 (let (($x1341019 (= (_ bv0 8) ?x1639670)))
 (let ((?x1645312 (ite $x1341019 (_ bv576460752303355718 64) ?x1657274)))
 (let ((?x1657097 ((_ extract 207 200) ?x1356873)))
 (let (($x1340984 (= (_ bv0 8) ?x1657097)))
 (let ((?x1657054 (ite $x1340984 (_ bv576460752303355717 64) ?x1645312)))
 (let ((?x1657239 ((_ extract 215 208) ?x1356873)))
 (let (($x1340964 (= (_ bv0 8) ?x1657239)))
 (let ((?x1646095 (ite $x1340964 (_ bv576460752303355716 64) ?x1657054)))
 (let ((?x1657424 ((_ extract 223 216) ?x1356873)))
 (let (($x1340947 (= (_ bv0 8) ?x1657424)))
 (let ((?x1657164 (ite $x1340947 (_ bv576460752303355715 64) ?x1646095)))
 (let ((?x1657435 ((_ extract 231 224) ?x1356873)))
 (let (($x1337931 (= (_ bv0 8) ?x1657435)))
 (let ((?x1657252 (ite $x1337931 (_ bv576460752303355714 64) ?x1657164)))
 (let ((?x1656996 ((_ extract 239 232) ?x1356873)))
 (let (($x1309211 (= (_ bv0 8) ?x1656996)))
 (let ((?x1657273 (ite $x1309211 (_ bv576460752303355713 64) ?x1657252)))
 (let ((?x1357006 ((_ extract 247 240) ?x1356873)))
 (let (($x1337364 (= (_ bv0 8) ?x1357006)))
 (let ((?x1657309 (ite $x1337364 (_ bv576460752303355712 64) ?x1657273)))
 (let ((?x1657168 (bvsub ?x1657309 (_ bv576460752303355712 64))))
 (= ?x1657168 strlen_10104_64)))))))))))))))))))))))))))))))))))))))))))))))))))))))))))))))))))))))))))))))))))))))))))))))))))))))))))))))))))))))))))))))))))))))))))))))))))))))))))))))))))))))))))))))))))))))))))))))))))))))))))))))))))))))))))))))))))))))))))))))))))))))))
(maximize syscall_stub_readlink_161_64)
(maximize syscall_stub_ioctl_95_32)
(minimize mem_7fffffffffef740_6458_248)
(maximize args_1_8)
(maximize strlen_10104_64)
(maximize access_2311_32)
(minimize strlen_10104_64)
(minimize strncmp_ret_84_32)
(minimize mem_7fffffffffeefc8_439_64)
(minimize mem_7fffffffffef058_440_64)
(minimize strncmp_ret_86_32)
(minimize strlen_5350_64)
(minimize strlen_85_64)
(minimize strlen_1003_64)
(maximize filesize_file_0_/proc/self/loginuid_88_64)
(maximize strlen_8294_64)
(maximize strncmp_ret_86_32)
(minimize syscall_stub_newfstatat_224_64)
(minimize mem_7fffffffffef420_175_64)
(minimize args_1_8)
(maximize syscall_stub_newfstatat_125_64)
(minimize strlen_83_64)
(minimize mem_7fffffffffeefa8_302_64)
(maximize strncmp_ret_84_32)
(maximize strlen_85_64)
(maximize strlen_5350_64)
(minimize filesize_file_0_/proc/self/loginuid_88_64)
(minimize strlen_8294_64)
(minimize syscall_stub_ioctl_95_32)
(maximize mem_7fffffffffeefa8_302_64)
(minimize mem_2c_5349_264)
(minimize syscall_stub_readlink_161_64)
(minimize mem_7fffffffffef030_351_64)
(minimize access_3100_32)
(minimize access_2311_32)
(maximize mem_7fffffffffef420_175_64)
(maximize mem_2c_5349_264)
(minimize mem_7fffffffffef048_402_32)
(maximize mem_7fffffffffef038_301_64)
(minimize mem_7fffffffffeefa0_350_64)
(maximize mem_7fffffffffef740_6458_248)
(maximize strlen_83_64)
(maximize access_3100_32)
(maximize mem_7fffffffffeefa0_350_64)
(maximize mem_7fffffffffef048_402_32)
(maximize mem_7fffffffffeefc8_439_64)
(maximize mem_7fffffffffef058_440_64)
(maximize syscall_stub_newfstatat_224_64)
(maximize mem_7fffffffffef030_351_64)
(minimize mem_7fffffffffef038_301_64)
(maximize strlen_1003_64)
(check-sat)
(get-objectives)
